&bands
  prefix = 'silicon',
  outdir = './out/',
  lsym = .false.,
  filband = 'silicon.band',
/
