&INPUTPP
  outdir     =  './out/'
  prefix     =  'silicon'
  seedname   =  'silicon'
  write_amn  = .true.
  write_mmn  = .true.
  !write_unk  = .true.
/
