num_wann = 8
num_bands = 12

auto_projections = .true.
!guiding_centres = .true.

! Disentanglement and wannierisation are not
! needed for closest Wannier method
dis_num_iter      = 0
num_iter          = 0

!===========  additional input for closest Wannier method
use_cwf_method = .true.
cwf_mu_max     = 10
cwf_mu_min     = -15
cwf_sigma_max  = 2.0
cwf_sigma_min  = 0.0
cwf_delta      = 1e-12
!===========

bands_plot = .true.
bands_num_points = 100

!wannier_plot = .true.
!wannier_plot_supercell = 3

Begin Atoms_Frac
Si           0.0000000000        0.0000000000        0.0000000000
Si          -0.2500000000        0.7500000000       -0.2500000000
End Atoms_Frac

begin unit_cell_cart
 bohr
-5.10   0.00   5.10
 0.00   5.10   5.10
-5.10   5.10   0.00
end unit_cell_cart

begin kpoint_path
G  0.0000000000  0.0000000000  0.0000000000  X  0.5000000000  0.0000000000  0.5000000000
X  0.5000000000  0.0000000000  0.5000000000  U  0.6250000000  0.2500000000  0.6250000000
K  0.3750000000  0.3750000000  0.7500000000  G  0.0000000000  0.0000000000  0.0000000000
G  0.0000000000  0.0000000000  0.0000000000  L  0.5000000000  0.5000000000  0.5000000000
L  0.5000000000  0.5000000000  0.5000000000  W  0.5000000000  0.2500000000  0.7500000000
W  0.5000000000  0.2500000000  0.7500000000  X  0.5000000000  0.0000000000  0.5000000000
end kpoint_path

mp_grid      = 10 10 10

begin kpoints
  0.00000000  0.00000000  0.00000000
  0.00000000  0.00000000  0.10000000
  0.00000000  0.00000000  0.20000000
  0.00000000  0.00000000  0.30000000
  0.00000000  0.00000000  0.40000000
  0.00000000  0.00000000  0.50000000
  0.00000000  0.00000000  0.60000000
  0.00000000  0.00000000  0.70000000
  0.00000000  0.00000000  0.80000000
  0.00000000  0.00000000  0.90000000
  0.00000000  0.10000000  0.00000000
  0.00000000  0.10000000  0.10000000
  0.00000000  0.10000000  0.20000000
  0.00000000  0.10000000  0.30000000
  0.00000000  0.10000000  0.40000000
  0.00000000  0.10000000  0.50000000
  0.00000000  0.10000000  0.60000000
  0.00000000  0.10000000  0.70000000
  0.00000000  0.10000000  0.80000000
  0.00000000  0.10000000  0.90000000
  0.00000000  0.20000000  0.00000000
  0.00000000  0.20000000  0.10000000
  0.00000000  0.20000000  0.20000000
  0.00000000  0.20000000  0.30000000
  0.00000000  0.20000000  0.40000000
  0.00000000  0.20000000  0.50000000
  0.00000000  0.20000000  0.60000000
  0.00000000  0.20000000  0.70000000
  0.00000000  0.20000000  0.80000000
  0.00000000  0.20000000  0.90000000
  0.00000000  0.30000000  0.00000000
  0.00000000  0.30000000  0.10000000
  0.00000000  0.30000000  0.20000000
  0.00000000  0.30000000  0.30000000
  0.00000000  0.30000000  0.40000000
  0.00000000  0.30000000  0.50000000
  0.00000000  0.30000000  0.60000000
  0.00000000  0.30000000  0.70000000
  0.00000000  0.30000000  0.80000000
  0.00000000  0.30000000  0.90000000
  0.00000000  0.40000000  0.00000000
  0.00000000  0.40000000  0.10000000
  0.00000000  0.40000000  0.20000000
  0.00000000  0.40000000  0.30000000
  0.00000000  0.40000000  0.40000000
  0.00000000  0.40000000  0.50000000
  0.00000000  0.40000000  0.60000000
  0.00000000  0.40000000  0.70000000
  0.00000000  0.40000000  0.80000000
  0.00000000  0.40000000  0.90000000
  0.00000000  0.50000000  0.00000000
  0.00000000  0.50000000  0.10000000
  0.00000000  0.50000000  0.20000000
  0.00000000  0.50000000  0.30000000
  0.00000000  0.50000000  0.40000000
  0.00000000  0.50000000  0.50000000
  0.00000000  0.50000000  0.60000000
  0.00000000  0.50000000  0.70000000
  0.00000000  0.50000000  0.80000000
  0.00000000  0.50000000  0.90000000
  0.00000000  0.60000000  0.00000000
  0.00000000  0.60000000  0.10000000
  0.00000000  0.60000000  0.20000000
  0.00000000  0.60000000  0.30000000
  0.00000000  0.60000000  0.40000000
  0.00000000  0.60000000  0.50000000
  0.00000000  0.60000000  0.60000000
  0.00000000  0.60000000  0.70000000
  0.00000000  0.60000000  0.80000000
  0.00000000  0.60000000  0.90000000
  0.00000000  0.70000000  0.00000000
  0.00000000  0.70000000  0.10000000
  0.00000000  0.70000000  0.20000000
  0.00000000  0.70000000  0.30000000
  0.00000000  0.70000000  0.40000000
  0.00000000  0.70000000  0.50000000
  0.00000000  0.70000000  0.60000000
  0.00000000  0.70000000  0.70000000
  0.00000000  0.70000000  0.80000000
  0.00000000  0.70000000  0.90000000
  0.00000000  0.80000000  0.00000000
  0.00000000  0.80000000  0.10000000
  0.00000000  0.80000000  0.20000000
  0.00000000  0.80000000  0.30000000
  0.00000000  0.80000000  0.40000000
  0.00000000  0.80000000  0.50000000
  0.00000000  0.80000000  0.60000000
  0.00000000  0.80000000  0.70000000
  0.00000000  0.80000000  0.80000000
  0.00000000  0.80000000  0.90000000
  0.00000000  0.90000000  0.00000000
  0.00000000  0.90000000  0.10000000
  0.00000000  0.90000000  0.20000000
  0.00000000  0.90000000  0.30000000
  0.00000000  0.90000000  0.40000000
  0.00000000  0.90000000  0.50000000
  0.00000000  0.90000000  0.60000000
  0.00000000  0.90000000  0.70000000
  0.00000000  0.90000000  0.80000000
  0.00000000  0.90000000  0.90000000
  0.10000000  0.00000000  0.00000000
  0.10000000  0.00000000  0.10000000
  0.10000000  0.00000000  0.20000000
  0.10000000  0.00000000  0.30000000
  0.10000000  0.00000000  0.40000000
  0.10000000  0.00000000  0.50000000
  0.10000000  0.00000000  0.60000000
  0.10000000  0.00000000  0.70000000
  0.10000000  0.00000000  0.80000000
  0.10000000  0.00000000  0.90000000
  0.10000000  0.10000000  0.00000000
  0.10000000  0.10000000  0.10000000
  0.10000000  0.10000000  0.20000000
  0.10000000  0.10000000  0.30000000
  0.10000000  0.10000000  0.40000000
  0.10000000  0.10000000  0.50000000
  0.10000000  0.10000000  0.60000000
  0.10000000  0.10000000  0.70000000
  0.10000000  0.10000000  0.80000000
  0.10000000  0.10000000  0.90000000
  0.10000000  0.20000000  0.00000000
  0.10000000  0.20000000  0.10000000
  0.10000000  0.20000000  0.20000000
  0.10000000  0.20000000  0.30000000
  0.10000000  0.20000000  0.40000000
  0.10000000  0.20000000  0.50000000
  0.10000000  0.20000000  0.60000000
  0.10000000  0.20000000  0.70000000
  0.10000000  0.20000000  0.80000000
  0.10000000  0.20000000  0.90000000
  0.10000000  0.30000000  0.00000000
  0.10000000  0.30000000  0.10000000
  0.10000000  0.30000000  0.20000000
  0.10000000  0.30000000  0.30000000
  0.10000000  0.30000000  0.40000000
  0.10000000  0.30000000  0.50000000
  0.10000000  0.30000000  0.60000000
  0.10000000  0.30000000  0.70000000
  0.10000000  0.30000000  0.80000000
  0.10000000  0.30000000  0.90000000
  0.10000000  0.40000000  0.00000000
  0.10000000  0.40000000  0.10000000
  0.10000000  0.40000000  0.20000000
  0.10000000  0.40000000  0.30000000
  0.10000000  0.40000000  0.40000000
  0.10000000  0.40000000  0.50000000
  0.10000000  0.40000000  0.60000000
  0.10000000  0.40000000  0.70000000
  0.10000000  0.40000000  0.80000000
  0.10000000  0.40000000  0.90000000
  0.10000000  0.50000000  0.00000000
  0.10000000  0.50000000  0.10000000
  0.10000000  0.50000000  0.20000000
  0.10000000  0.50000000  0.30000000
  0.10000000  0.50000000  0.40000000
  0.10000000  0.50000000  0.50000000
  0.10000000  0.50000000  0.60000000
  0.10000000  0.50000000  0.70000000
  0.10000000  0.50000000  0.80000000
  0.10000000  0.50000000  0.90000000
  0.10000000  0.60000000  0.00000000
  0.10000000  0.60000000  0.10000000
  0.10000000  0.60000000  0.20000000
  0.10000000  0.60000000  0.30000000
  0.10000000  0.60000000  0.40000000
  0.10000000  0.60000000  0.50000000
  0.10000000  0.60000000  0.60000000
  0.10000000  0.60000000  0.70000000
  0.10000000  0.60000000  0.80000000
  0.10000000  0.60000000  0.90000000
  0.10000000  0.70000000  0.00000000
  0.10000000  0.70000000  0.10000000
  0.10000000  0.70000000  0.20000000
  0.10000000  0.70000000  0.30000000
  0.10000000  0.70000000  0.40000000
  0.10000000  0.70000000  0.50000000
  0.10000000  0.70000000  0.60000000
  0.10000000  0.70000000  0.70000000
  0.10000000  0.70000000  0.80000000
  0.10000000  0.70000000  0.90000000
  0.10000000  0.80000000  0.00000000
  0.10000000  0.80000000  0.10000000
  0.10000000  0.80000000  0.20000000
  0.10000000  0.80000000  0.30000000
  0.10000000  0.80000000  0.40000000
  0.10000000  0.80000000  0.50000000
  0.10000000  0.80000000  0.60000000
  0.10000000  0.80000000  0.70000000
  0.10000000  0.80000000  0.80000000
  0.10000000  0.80000000  0.90000000
  0.10000000  0.90000000  0.00000000
  0.10000000  0.90000000  0.10000000
  0.10000000  0.90000000  0.20000000
  0.10000000  0.90000000  0.30000000
  0.10000000  0.90000000  0.40000000
  0.10000000  0.90000000  0.50000000
  0.10000000  0.90000000  0.60000000
  0.10000000  0.90000000  0.70000000
  0.10000000  0.90000000  0.80000000
  0.10000000  0.90000000  0.90000000
  0.20000000  0.00000000  0.00000000
  0.20000000  0.00000000  0.10000000
  0.20000000  0.00000000  0.20000000
  0.20000000  0.00000000  0.30000000
  0.20000000  0.00000000  0.40000000
  0.20000000  0.00000000  0.50000000
  0.20000000  0.00000000  0.60000000
  0.20000000  0.00000000  0.70000000
  0.20000000  0.00000000  0.80000000
  0.20000000  0.00000000  0.90000000
  0.20000000  0.10000000  0.00000000
  0.20000000  0.10000000  0.10000000
  0.20000000  0.10000000  0.20000000
  0.20000000  0.10000000  0.30000000
  0.20000000  0.10000000  0.40000000
  0.20000000  0.10000000  0.50000000
  0.20000000  0.10000000  0.60000000
  0.20000000  0.10000000  0.70000000
  0.20000000  0.10000000  0.80000000
  0.20000000  0.10000000  0.90000000
  0.20000000  0.20000000  0.00000000
  0.20000000  0.20000000  0.10000000
  0.20000000  0.20000000  0.20000000
  0.20000000  0.20000000  0.30000000
  0.20000000  0.20000000  0.40000000
  0.20000000  0.20000000  0.50000000
  0.20000000  0.20000000  0.60000000
  0.20000000  0.20000000  0.70000000
  0.20000000  0.20000000  0.80000000
  0.20000000  0.20000000  0.90000000
  0.20000000  0.30000000  0.00000000
  0.20000000  0.30000000  0.10000000
  0.20000000  0.30000000  0.20000000
  0.20000000  0.30000000  0.30000000
  0.20000000  0.30000000  0.40000000
  0.20000000  0.30000000  0.50000000
  0.20000000  0.30000000  0.60000000
  0.20000000  0.30000000  0.70000000
  0.20000000  0.30000000  0.80000000
  0.20000000  0.30000000  0.90000000
  0.20000000  0.40000000  0.00000000
  0.20000000  0.40000000  0.10000000
  0.20000000  0.40000000  0.20000000
  0.20000000  0.40000000  0.30000000
  0.20000000  0.40000000  0.40000000
  0.20000000  0.40000000  0.50000000
  0.20000000  0.40000000  0.60000000
  0.20000000  0.40000000  0.70000000
  0.20000000  0.40000000  0.80000000
  0.20000000  0.40000000  0.90000000
  0.20000000  0.50000000  0.00000000
  0.20000000  0.50000000  0.10000000
  0.20000000  0.50000000  0.20000000
  0.20000000  0.50000000  0.30000000
  0.20000000  0.50000000  0.40000000
  0.20000000  0.50000000  0.50000000
  0.20000000  0.50000000  0.60000000
  0.20000000  0.50000000  0.70000000
  0.20000000  0.50000000  0.80000000
  0.20000000  0.50000000  0.90000000
  0.20000000  0.60000000  0.00000000
  0.20000000  0.60000000  0.10000000
  0.20000000  0.60000000  0.20000000
  0.20000000  0.60000000  0.30000000
  0.20000000  0.60000000  0.40000000
  0.20000000  0.60000000  0.50000000
  0.20000000  0.60000000  0.60000000
  0.20000000  0.60000000  0.70000000
  0.20000000  0.60000000  0.80000000
  0.20000000  0.60000000  0.90000000
  0.20000000  0.70000000  0.00000000
  0.20000000  0.70000000  0.10000000
  0.20000000  0.70000000  0.20000000
  0.20000000  0.70000000  0.30000000
  0.20000000  0.70000000  0.40000000
  0.20000000  0.70000000  0.50000000
  0.20000000  0.70000000  0.60000000
  0.20000000  0.70000000  0.70000000
  0.20000000  0.70000000  0.80000000
  0.20000000  0.70000000  0.90000000
  0.20000000  0.80000000  0.00000000
  0.20000000  0.80000000  0.10000000
  0.20000000  0.80000000  0.20000000
  0.20000000  0.80000000  0.30000000
  0.20000000  0.80000000  0.40000000
  0.20000000  0.80000000  0.50000000
  0.20000000  0.80000000  0.60000000
  0.20000000  0.80000000  0.70000000
  0.20000000  0.80000000  0.80000000
  0.20000000  0.80000000  0.90000000
  0.20000000  0.90000000  0.00000000
  0.20000000  0.90000000  0.10000000
  0.20000000  0.90000000  0.20000000
  0.20000000  0.90000000  0.30000000
  0.20000000  0.90000000  0.40000000
  0.20000000  0.90000000  0.50000000
  0.20000000  0.90000000  0.60000000
  0.20000000  0.90000000  0.70000000
  0.20000000  0.90000000  0.80000000
  0.20000000  0.90000000  0.90000000
  0.30000000  0.00000000  0.00000000
  0.30000000  0.00000000  0.10000000
  0.30000000  0.00000000  0.20000000
  0.30000000  0.00000000  0.30000000
  0.30000000  0.00000000  0.40000000
  0.30000000  0.00000000  0.50000000
  0.30000000  0.00000000  0.60000000
  0.30000000  0.00000000  0.70000000
  0.30000000  0.00000000  0.80000000
  0.30000000  0.00000000  0.90000000
  0.30000000  0.10000000  0.00000000
  0.30000000  0.10000000  0.10000000
  0.30000000  0.10000000  0.20000000
  0.30000000  0.10000000  0.30000000
  0.30000000  0.10000000  0.40000000
  0.30000000  0.10000000  0.50000000
  0.30000000  0.10000000  0.60000000
  0.30000000  0.10000000  0.70000000
  0.30000000  0.10000000  0.80000000
  0.30000000  0.10000000  0.90000000
  0.30000000  0.20000000  0.00000000
  0.30000000  0.20000000  0.10000000
  0.30000000  0.20000000  0.20000000
  0.30000000  0.20000000  0.30000000
  0.30000000  0.20000000  0.40000000
  0.30000000  0.20000000  0.50000000
  0.30000000  0.20000000  0.60000000
  0.30000000  0.20000000  0.70000000
  0.30000000  0.20000000  0.80000000
  0.30000000  0.20000000  0.90000000
  0.30000000  0.30000000  0.00000000
  0.30000000  0.30000000  0.10000000
  0.30000000  0.30000000  0.20000000
  0.30000000  0.30000000  0.30000000
  0.30000000  0.30000000  0.40000000
  0.30000000  0.30000000  0.50000000
  0.30000000  0.30000000  0.60000000
  0.30000000  0.30000000  0.70000000
  0.30000000  0.30000000  0.80000000
  0.30000000  0.30000000  0.90000000
  0.30000000  0.40000000  0.00000000
  0.30000000  0.40000000  0.10000000
  0.30000000  0.40000000  0.20000000
  0.30000000  0.40000000  0.30000000
  0.30000000  0.40000000  0.40000000
  0.30000000  0.40000000  0.50000000
  0.30000000  0.40000000  0.60000000
  0.30000000  0.40000000  0.70000000
  0.30000000  0.40000000  0.80000000
  0.30000000  0.40000000  0.90000000
  0.30000000  0.50000000  0.00000000
  0.30000000  0.50000000  0.10000000
  0.30000000  0.50000000  0.20000000
  0.30000000  0.50000000  0.30000000
  0.30000000  0.50000000  0.40000000
  0.30000000  0.50000000  0.50000000
  0.30000000  0.50000000  0.60000000
  0.30000000  0.50000000  0.70000000
  0.30000000  0.50000000  0.80000000
  0.30000000  0.50000000  0.90000000
  0.30000000  0.60000000  0.00000000
  0.30000000  0.60000000  0.10000000
  0.30000000  0.60000000  0.20000000
  0.30000000  0.60000000  0.30000000
  0.30000000  0.60000000  0.40000000
  0.30000000  0.60000000  0.50000000
  0.30000000  0.60000000  0.60000000
  0.30000000  0.60000000  0.70000000
  0.30000000  0.60000000  0.80000000
  0.30000000  0.60000000  0.90000000
  0.30000000  0.70000000  0.00000000
  0.30000000  0.70000000  0.10000000
  0.30000000  0.70000000  0.20000000
  0.30000000  0.70000000  0.30000000
  0.30000000  0.70000000  0.40000000
  0.30000000  0.70000000  0.50000000
  0.30000000  0.70000000  0.60000000
  0.30000000  0.70000000  0.70000000
  0.30000000  0.70000000  0.80000000
  0.30000000  0.70000000  0.90000000
  0.30000000  0.80000000  0.00000000
  0.30000000  0.80000000  0.10000000
  0.30000000  0.80000000  0.20000000
  0.30000000  0.80000000  0.30000000
  0.30000000  0.80000000  0.40000000
  0.30000000  0.80000000  0.50000000
  0.30000000  0.80000000  0.60000000
  0.30000000  0.80000000  0.70000000
  0.30000000  0.80000000  0.80000000
  0.30000000  0.80000000  0.90000000
  0.30000000  0.90000000  0.00000000
  0.30000000  0.90000000  0.10000000
  0.30000000  0.90000000  0.20000000
  0.30000000  0.90000000  0.30000000
  0.30000000  0.90000000  0.40000000
  0.30000000  0.90000000  0.50000000
  0.30000000  0.90000000  0.60000000
  0.30000000  0.90000000  0.70000000
  0.30000000  0.90000000  0.80000000
  0.30000000  0.90000000  0.90000000
  0.40000000  0.00000000  0.00000000
  0.40000000  0.00000000  0.10000000
  0.40000000  0.00000000  0.20000000
  0.40000000  0.00000000  0.30000000
  0.40000000  0.00000000  0.40000000
  0.40000000  0.00000000  0.50000000
  0.40000000  0.00000000  0.60000000
  0.40000000  0.00000000  0.70000000
  0.40000000  0.00000000  0.80000000
  0.40000000  0.00000000  0.90000000
  0.40000000  0.10000000  0.00000000
  0.40000000  0.10000000  0.10000000
  0.40000000  0.10000000  0.20000000
  0.40000000  0.10000000  0.30000000
  0.40000000  0.10000000  0.40000000
  0.40000000  0.10000000  0.50000000
  0.40000000  0.10000000  0.60000000
  0.40000000  0.10000000  0.70000000
  0.40000000  0.10000000  0.80000000
  0.40000000  0.10000000  0.90000000
  0.40000000  0.20000000  0.00000000
  0.40000000  0.20000000  0.10000000
  0.40000000  0.20000000  0.20000000
  0.40000000  0.20000000  0.30000000
  0.40000000  0.20000000  0.40000000
  0.40000000  0.20000000  0.50000000
  0.40000000  0.20000000  0.60000000
  0.40000000  0.20000000  0.70000000
  0.40000000  0.20000000  0.80000000
  0.40000000  0.20000000  0.90000000
  0.40000000  0.30000000  0.00000000
  0.40000000  0.30000000  0.10000000
  0.40000000  0.30000000  0.20000000
  0.40000000  0.30000000  0.30000000
  0.40000000  0.30000000  0.40000000
  0.40000000  0.30000000  0.50000000
  0.40000000  0.30000000  0.60000000
  0.40000000  0.30000000  0.70000000
  0.40000000  0.30000000  0.80000000
  0.40000000  0.30000000  0.90000000
  0.40000000  0.40000000  0.00000000
  0.40000000  0.40000000  0.10000000
  0.40000000  0.40000000  0.20000000
  0.40000000  0.40000000  0.30000000
  0.40000000  0.40000000  0.40000000
  0.40000000  0.40000000  0.50000000
  0.40000000  0.40000000  0.60000000
  0.40000000  0.40000000  0.70000000
  0.40000000  0.40000000  0.80000000
  0.40000000  0.40000000  0.90000000
  0.40000000  0.50000000  0.00000000
  0.40000000  0.50000000  0.10000000
  0.40000000  0.50000000  0.20000000
  0.40000000  0.50000000  0.30000000
  0.40000000  0.50000000  0.40000000
  0.40000000  0.50000000  0.50000000
  0.40000000  0.50000000  0.60000000
  0.40000000  0.50000000  0.70000000
  0.40000000  0.50000000  0.80000000
  0.40000000  0.50000000  0.90000000
  0.40000000  0.60000000  0.00000000
  0.40000000  0.60000000  0.10000000
  0.40000000  0.60000000  0.20000000
  0.40000000  0.60000000  0.30000000
  0.40000000  0.60000000  0.40000000
  0.40000000  0.60000000  0.50000000
  0.40000000  0.60000000  0.60000000
  0.40000000  0.60000000  0.70000000
  0.40000000  0.60000000  0.80000000
  0.40000000  0.60000000  0.90000000
  0.40000000  0.70000000  0.00000000
  0.40000000  0.70000000  0.10000000
  0.40000000  0.70000000  0.20000000
  0.40000000  0.70000000  0.30000000
  0.40000000  0.70000000  0.40000000
  0.40000000  0.70000000  0.50000000
  0.40000000  0.70000000  0.60000000
  0.40000000  0.70000000  0.70000000
  0.40000000  0.70000000  0.80000000
  0.40000000  0.70000000  0.90000000
  0.40000000  0.80000000  0.00000000
  0.40000000  0.80000000  0.10000000
  0.40000000  0.80000000  0.20000000
  0.40000000  0.80000000  0.30000000
  0.40000000  0.80000000  0.40000000
  0.40000000  0.80000000  0.50000000
  0.40000000  0.80000000  0.60000000
  0.40000000  0.80000000  0.70000000
  0.40000000  0.80000000  0.80000000
  0.40000000  0.80000000  0.90000000
  0.40000000  0.90000000  0.00000000
  0.40000000  0.90000000  0.10000000
  0.40000000  0.90000000  0.20000000
  0.40000000  0.90000000  0.30000000
  0.40000000  0.90000000  0.40000000
  0.40000000  0.90000000  0.50000000
  0.40000000  0.90000000  0.60000000
  0.40000000  0.90000000  0.70000000
  0.40000000  0.90000000  0.80000000
  0.40000000  0.90000000  0.90000000
  0.50000000  0.00000000  0.00000000
  0.50000000  0.00000000  0.10000000
  0.50000000  0.00000000  0.20000000
  0.50000000  0.00000000  0.30000000
  0.50000000  0.00000000  0.40000000
  0.50000000  0.00000000  0.50000000
  0.50000000  0.00000000  0.60000000
  0.50000000  0.00000000  0.70000000
  0.50000000  0.00000000  0.80000000
  0.50000000  0.00000000  0.90000000
  0.50000000  0.10000000  0.00000000
  0.50000000  0.10000000  0.10000000
  0.50000000  0.10000000  0.20000000
  0.50000000  0.10000000  0.30000000
  0.50000000  0.10000000  0.40000000
  0.50000000  0.10000000  0.50000000
  0.50000000  0.10000000  0.60000000
  0.50000000  0.10000000  0.70000000
  0.50000000  0.10000000  0.80000000
  0.50000000  0.10000000  0.90000000
  0.50000000  0.20000000  0.00000000
  0.50000000  0.20000000  0.10000000
  0.50000000  0.20000000  0.20000000
  0.50000000  0.20000000  0.30000000
  0.50000000  0.20000000  0.40000000
  0.50000000  0.20000000  0.50000000
  0.50000000  0.20000000  0.60000000
  0.50000000  0.20000000  0.70000000
  0.50000000  0.20000000  0.80000000
  0.50000000  0.20000000  0.90000000
  0.50000000  0.30000000  0.00000000
  0.50000000  0.30000000  0.10000000
  0.50000000  0.30000000  0.20000000
  0.50000000  0.30000000  0.30000000
  0.50000000  0.30000000  0.40000000
  0.50000000  0.30000000  0.50000000
  0.50000000  0.30000000  0.60000000
  0.50000000  0.30000000  0.70000000
  0.50000000  0.30000000  0.80000000
  0.50000000  0.30000000  0.90000000
  0.50000000  0.40000000  0.00000000
  0.50000000  0.40000000  0.10000000
  0.50000000  0.40000000  0.20000000
  0.50000000  0.40000000  0.30000000
  0.50000000  0.40000000  0.40000000
  0.50000000  0.40000000  0.50000000
  0.50000000  0.40000000  0.60000000
  0.50000000  0.40000000  0.70000000
  0.50000000  0.40000000  0.80000000
  0.50000000  0.40000000  0.90000000
  0.50000000  0.50000000  0.00000000
  0.50000000  0.50000000  0.10000000
  0.50000000  0.50000000  0.20000000
  0.50000000  0.50000000  0.30000000
  0.50000000  0.50000000  0.40000000
  0.50000000  0.50000000  0.50000000
  0.50000000  0.50000000  0.60000000
  0.50000000  0.50000000  0.70000000
  0.50000000  0.50000000  0.80000000
  0.50000000  0.50000000  0.90000000
  0.50000000  0.60000000  0.00000000
  0.50000000  0.60000000  0.10000000
  0.50000000  0.60000000  0.20000000
  0.50000000  0.60000000  0.30000000
  0.50000000  0.60000000  0.40000000
  0.50000000  0.60000000  0.50000000
  0.50000000  0.60000000  0.60000000
  0.50000000  0.60000000  0.70000000
  0.50000000  0.60000000  0.80000000
  0.50000000  0.60000000  0.90000000
  0.50000000  0.70000000  0.00000000
  0.50000000  0.70000000  0.10000000
  0.50000000  0.70000000  0.20000000
  0.50000000  0.70000000  0.30000000
  0.50000000  0.70000000  0.40000000
  0.50000000  0.70000000  0.50000000
  0.50000000  0.70000000  0.60000000
  0.50000000  0.70000000  0.70000000
  0.50000000  0.70000000  0.80000000
  0.50000000  0.70000000  0.90000000
  0.50000000  0.80000000  0.00000000
  0.50000000  0.80000000  0.10000000
  0.50000000  0.80000000  0.20000000
  0.50000000  0.80000000  0.30000000
  0.50000000  0.80000000  0.40000000
  0.50000000  0.80000000  0.50000000
  0.50000000  0.80000000  0.60000000
  0.50000000  0.80000000  0.70000000
  0.50000000  0.80000000  0.80000000
  0.50000000  0.80000000  0.90000000
  0.50000000  0.90000000  0.00000000
  0.50000000  0.90000000  0.10000000
  0.50000000  0.90000000  0.20000000
  0.50000000  0.90000000  0.30000000
  0.50000000  0.90000000  0.40000000
  0.50000000  0.90000000  0.50000000
  0.50000000  0.90000000  0.60000000
  0.50000000  0.90000000  0.70000000
  0.50000000  0.90000000  0.80000000
  0.50000000  0.90000000  0.90000000
  0.60000000  0.00000000  0.00000000
  0.60000000  0.00000000  0.10000000
  0.60000000  0.00000000  0.20000000
  0.60000000  0.00000000  0.30000000
  0.60000000  0.00000000  0.40000000
  0.60000000  0.00000000  0.50000000
  0.60000000  0.00000000  0.60000000
  0.60000000  0.00000000  0.70000000
  0.60000000  0.00000000  0.80000000
  0.60000000  0.00000000  0.90000000
  0.60000000  0.10000000  0.00000000
  0.60000000  0.10000000  0.10000000
  0.60000000  0.10000000  0.20000000
  0.60000000  0.10000000  0.30000000
  0.60000000  0.10000000  0.40000000
  0.60000000  0.10000000  0.50000000
  0.60000000  0.10000000  0.60000000
  0.60000000  0.10000000  0.70000000
  0.60000000  0.10000000  0.80000000
  0.60000000  0.10000000  0.90000000
  0.60000000  0.20000000  0.00000000
  0.60000000  0.20000000  0.10000000
  0.60000000  0.20000000  0.20000000
  0.60000000  0.20000000  0.30000000
  0.60000000  0.20000000  0.40000000
  0.60000000  0.20000000  0.50000000
  0.60000000  0.20000000  0.60000000
  0.60000000  0.20000000  0.70000000
  0.60000000  0.20000000  0.80000000
  0.60000000  0.20000000  0.90000000
  0.60000000  0.30000000  0.00000000
  0.60000000  0.30000000  0.10000000
  0.60000000  0.30000000  0.20000000
  0.60000000  0.30000000  0.30000000
  0.60000000  0.30000000  0.40000000
  0.60000000  0.30000000  0.50000000
  0.60000000  0.30000000  0.60000000
  0.60000000  0.30000000  0.70000000
  0.60000000  0.30000000  0.80000000
  0.60000000  0.30000000  0.90000000
  0.60000000  0.40000000  0.00000000
  0.60000000  0.40000000  0.10000000
  0.60000000  0.40000000  0.20000000
  0.60000000  0.40000000  0.30000000
  0.60000000  0.40000000  0.40000000
  0.60000000  0.40000000  0.50000000
  0.60000000  0.40000000  0.60000000
  0.60000000  0.40000000  0.70000000
  0.60000000  0.40000000  0.80000000
  0.60000000  0.40000000  0.90000000
  0.60000000  0.50000000  0.00000000
  0.60000000  0.50000000  0.10000000
  0.60000000  0.50000000  0.20000000
  0.60000000  0.50000000  0.30000000
  0.60000000  0.50000000  0.40000000
  0.60000000  0.50000000  0.50000000
  0.60000000  0.50000000  0.60000000
  0.60000000  0.50000000  0.70000000
  0.60000000  0.50000000  0.80000000
  0.60000000  0.50000000  0.90000000
  0.60000000  0.60000000  0.00000000
  0.60000000  0.60000000  0.10000000
  0.60000000  0.60000000  0.20000000
  0.60000000  0.60000000  0.30000000
  0.60000000  0.60000000  0.40000000
  0.60000000  0.60000000  0.50000000
  0.60000000  0.60000000  0.60000000
  0.60000000  0.60000000  0.70000000
  0.60000000  0.60000000  0.80000000
  0.60000000  0.60000000  0.90000000
  0.60000000  0.70000000  0.00000000
  0.60000000  0.70000000  0.10000000
  0.60000000  0.70000000  0.20000000
  0.60000000  0.70000000  0.30000000
  0.60000000  0.70000000  0.40000000
  0.60000000  0.70000000  0.50000000
  0.60000000  0.70000000  0.60000000
  0.60000000  0.70000000  0.70000000
  0.60000000  0.70000000  0.80000000
  0.60000000  0.70000000  0.90000000
  0.60000000  0.80000000  0.00000000
  0.60000000  0.80000000  0.10000000
  0.60000000  0.80000000  0.20000000
  0.60000000  0.80000000  0.30000000
  0.60000000  0.80000000  0.40000000
  0.60000000  0.80000000  0.50000000
  0.60000000  0.80000000  0.60000000
  0.60000000  0.80000000  0.70000000
  0.60000000  0.80000000  0.80000000
  0.60000000  0.80000000  0.90000000
  0.60000000  0.90000000  0.00000000
  0.60000000  0.90000000  0.10000000
  0.60000000  0.90000000  0.20000000
  0.60000000  0.90000000  0.30000000
  0.60000000  0.90000000  0.40000000
  0.60000000  0.90000000  0.50000000
  0.60000000  0.90000000  0.60000000
  0.60000000  0.90000000  0.70000000
  0.60000000  0.90000000  0.80000000
  0.60000000  0.90000000  0.90000000
  0.70000000  0.00000000  0.00000000
  0.70000000  0.00000000  0.10000000
  0.70000000  0.00000000  0.20000000
  0.70000000  0.00000000  0.30000000
  0.70000000  0.00000000  0.40000000
  0.70000000  0.00000000  0.50000000
  0.70000000  0.00000000  0.60000000
  0.70000000  0.00000000  0.70000000
  0.70000000  0.00000000  0.80000000
  0.70000000  0.00000000  0.90000000
  0.70000000  0.10000000  0.00000000
  0.70000000  0.10000000  0.10000000
  0.70000000  0.10000000  0.20000000
  0.70000000  0.10000000  0.30000000
  0.70000000  0.10000000  0.40000000
  0.70000000  0.10000000  0.50000000
  0.70000000  0.10000000  0.60000000
  0.70000000  0.10000000  0.70000000
  0.70000000  0.10000000  0.80000000
  0.70000000  0.10000000  0.90000000
  0.70000000  0.20000000  0.00000000
  0.70000000  0.20000000  0.10000000
  0.70000000  0.20000000  0.20000000
  0.70000000  0.20000000  0.30000000
  0.70000000  0.20000000  0.40000000
  0.70000000  0.20000000  0.50000000
  0.70000000  0.20000000  0.60000000
  0.70000000  0.20000000  0.70000000
  0.70000000  0.20000000  0.80000000
  0.70000000  0.20000000  0.90000000
  0.70000000  0.30000000  0.00000000
  0.70000000  0.30000000  0.10000000
  0.70000000  0.30000000  0.20000000
  0.70000000  0.30000000  0.30000000
  0.70000000  0.30000000  0.40000000
  0.70000000  0.30000000  0.50000000
  0.70000000  0.30000000  0.60000000
  0.70000000  0.30000000  0.70000000
  0.70000000  0.30000000  0.80000000
  0.70000000  0.30000000  0.90000000
  0.70000000  0.40000000  0.00000000
  0.70000000  0.40000000  0.10000000
  0.70000000  0.40000000  0.20000000
  0.70000000  0.40000000  0.30000000
  0.70000000  0.40000000  0.40000000
  0.70000000  0.40000000  0.50000000
  0.70000000  0.40000000  0.60000000
  0.70000000  0.40000000  0.70000000
  0.70000000  0.40000000  0.80000000
  0.70000000  0.40000000  0.90000000
  0.70000000  0.50000000  0.00000000
  0.70000000  0.50000000  0.10000000
  0.70000000  0.50000000  0.20000000
  0.70000000  0.50000000  0.30000000
  0.70000000  0.50000000  0.40000000
  0.70000000  0.50000000  0.50000000
  0.70000000  0.50000000  0.60000000
  0.70000000  0.50000000  0.70000000
  0.70000000  0.50000000  0.80000000
  0.70000000  0.50000000  0.90000000
  0.70000000  0.60000000  0.00000000
  0.70000000  0.60000000  0.10000000
  0.70000000  0.60000000  0.20000000
  0.70000000  0.60000000  0.30000000
  0.70000000  0.60000000  0.40000000
  0.70000000  0.60000000  0.50000000
  0.70000000  0.60000000  0.60000000
  0.70000000  0.60000000  0.70000000
  0.70000000  0.60000000  0.80000000
  0.70000000  0.60000000  0.90000000
  0.70000000  0.70000000  0.00000000
  0.70000000  0.70000000  0.10000000
  0.70000000  0.70000000  0.20000000