&control
    calculation     =  'nscf'
    restart_mode    =  'from_scratch'
    prefix          =  'silicon'
    tprnfor         =  .true.
    pseudo_dir      =  '../../pseudo/'
    outdir          =  './out/'
    iprint          =   2
    etot_conv_thr   =   2.0000000000d-05
    forc_conv_thr   =   1.0000000000d-04
/
 &system
    ibrav           =   2
    celldm(1)       =  10.2
    nat             =   2
    ntyp            =   1
    ecutwfc         = 40.0
    nbnd            = 12
/
 &electrons
    mixing_beta     =  0.3
    conv_thr        =  1.0e-12
    diagonalization =  'cg'
    diago_full_acc = .true.
/
ATOMIC_SPECIES
Si     28.085 Si.pbe-n-van.UPF
ATOMIC_POSITIONS {crystal}
Si   0.00   0.00    0.00
Si  -0.25   0.75   -0.25
K_POINTS crystal
1000
  0.00000000  0.00000000  0.00000000  1.000000e-03
  0.00000000  0.00000000  0.10000000  1.000000e-03
  0.00000000  0.00000000  0.20000000  1.000000e-03
  0.00000000  0.00000000  0.30000000  1.000000e-03
  0.00000000  0.00000000  0.40000000  1.000000e-03
  0.00000000  0.00000000  0.50000000  1.000000e-03
  0.00000000  0.00000000  0.60000000  1.000000e-03
  0.00000000  0.00000000  0.70000000  1.000000e-03
  0.00000000  0.00000000  0.80000000  1.000000e-03
  0.00000000  0.00000000  0.90000000  1.000000e-03
  0.00000000  0.10000000  0.00000000  1.000000e-03
  0.00000000  0.10000000  0.10000000  1.000000e-03
  0.00000000  0.10000000  0.20000000  1.000000e-03
  0.00000000  0.10000000  0.30000000  1.000000e-03
  0.00000000  0.10000000  0.40000000  1.000000e-03
  0.00000000  0.10000000  0.50000000  1.000000e-03
  0.00000000  0.10000000  0.60000000  1.000000e-03
  0.00000000  0.10000000  0.70000000  1.000000e-03
  0.00000000  0.10000000  0.80000000  1.000000e-03
  0.00000000  0.10000000  0.90000000  1.000000e-03
  0.00000000  0.20000000  0.00000000  1.000000e-03
  0.00000000  0.20000000  0.10000000  1.000000e-03
  0.00000000  0.20000000  0.20000000  1.000000e-03
  0.00000000  0.20000000  0.30000000  1.000000e-03
  0.00000000  0.20000000  0.40000000  1.000000e-03
  0.00000000  0.20000000  0.50000000  1.000000e-03
  0.00000000  0.20000000  0.60000000  1.000000e-03
  0.00000000  0.20000000  0.70000000  1.000000e-03
  0.00000000  0.20000000  0.80000000  1.000000e-03
  0.00000000  0.20000000  0.90000000  1.000000e-03
  0.00000000  0.30000000  0.00000000  1.000000e-03
  0.00000000  0.30000000  0.10000000  1.000000e-03
  0.00000000  0.30000000  0.20000000  1.000000e-03
  0.00000000  0.30000000  0.30000000  1.000000e-03
  0.00000000  0.30000000  0.40000000  1.000000e-03
  0.00000000  0.30000000  0.50000000  1.000000e-03
  0.00000000  0.30000000  0.60000000  1.000000e-03
  0.00000000  0.30000000  0.70000000  1.000000e-03
  0.00000000  0.30000000  0.80000000  1.000000e-03
  0.00000000  0.30000000  0.90000000  1.000000e-03
  0.00000000  0.40000000  0.00000000  1.000000e-03
  0.00000000  0.40000000  0.10000000  1.000000e-03
  0.00000000  0.40000000  0.20000000  1.000000e-03
  0.00000000  0.40000000  0.30000000  1.000000e-03
  0.00000000  0.40000000  0.40000000  1.000000e-03
  0.00000000  0.40000000  0.50000000  1.000000e-03
  0.00000000  0.40000000  0.60000000  1.000000e-03
  0.00000000  0.40000000  0.70000000  1.000000e-03
  0.00000000  0.40000000  0.80000000  1.000000e-03
  0.00000000  0.40000000  0.90000000  1.000000e-03
  0.00000000  0.50000000  0.00000000  1.000000e-03
  0.00000000  0.50000000  0.10000000  1.000000e-03
  0.00000000  0.50000000  0.20000000  1.000000e-03
  0.00000000  0.50000000  0.30000000  1.000000e-03
  0.00000000  0.50000000  0.40000000  1.000000e-03
  0.00000000  0.50000000  0.50000000  1.000000e-03
  0.00000000  0.50000000  0.60000000  1.000000e-03
  0.00000000  0.50000000  0.70000000  1.000000e-03
  0.00000000  0.50000000  0.80000000  1.000000e-03
  0.00000000  0.50000000  0.90000000  1.000000e-03
  0.00000000  0.60000000  0.00000000  1.000000e-03
  0.00000000  0.60000000  0.10000000  1.000000e-03
  0.00000000  0.60000000  0.20000000  1.000000e-03
  0.00000000  0.60000000  0.30000000  1.000000e-03
  0.00000000  0.60000000  0.40000000  1.000000e-03
  0.00000000  0.60000000  0.50000000  1.000000e-03
  0.00000000  0.60000000  0.60000000  1.000000e-03
  0.00000000  0.60000000  0.70000000  1.000000e-03
  0.00000000  0.60000000  0.80000000  1.000000e-03
  0.00000000  0.60000000  0.90000000  1.000000e-03
  0.00000000  0.70000000  0.00000000  1.000000e-03
  0.00000000  0.70000000  0.10000000  1.000000e-03
  0.00000000  0.70000000  0.20000000  1.000000e-03
  0.00000000  0.70000000  0.30000000  1.000000e-03
  0.00000000  0.70000000  0.40000000  1.000000e-03
  0.00000000  0.70000000  0.50000000  1.000000e-03
  0.00000000  0.70000000  0.60000000  1.000000e-03
  0.00000000  0.70000000  0.70000000  1.000000e-03
  0.00000000  0.70000000  0.80000000  1.000000e-03
  0.00000000  0.70000000  0.90000000  1.000000e-03
  0.00000000  0.80000000  0.00000000  1.000000e-03
  0.00000000  0.80000000  0.10000000  1.000000e-03
  0.00000000  0.80000000  0.20000000  1.000000e-03
  0.00000000  0.80000000  0.30000000  1.000000e-03
  0.00000000  0.80000000  0.40000000  1.000000e-03
  0.00000000  0.80000000  0.50000000  1.000000e-03
  0.00000000  0.80000000  0.60000000  1.000000e-03
  0.00000000  0.80000000  0.70000000  1.000000e-03
  0.00000000  0.80000000  0.80000000  1.000000e-03
  0.00000000  0.80000000  0.90000000  1.000000e-03
  0.00000000  0.90000000  0.00000000  1.000000e-03
  0.00000000  0.90000000  0.10000000  1.000000e-03
  0.00000000  0.90000000  0.20000000  1.000000e-03
  0.00000000  0.90000000  0.30000000  1.000000e-03
  0.00000000  0.90000000  0.40000000  1.000000e-03
  0.00000000  0.90000000  0.50000000  1.000000e-03
  0.00000000  0.90000000  0.60000000  1.000000e-03
  0.00000000  0.90000000  0.70000000  1.000000e-03
  0.00000000  0.90000000  0.80000000  1.000000e-03
  0.00000000  0.90000000  0.90000000  1.000000e-03
  0.10000000  0.00000000  0.00000000  1.000000e-03
  0.10000000  0.00000000  0.10000000  1.000000e-03
  0.10000000  0.00000000  0.20000000  1.000000e-03
  0.10000000  0.00000000  0.30000000  1.000000e-03
  0.10000000  0.00000000  0.40000000  1.000000e-03
  0.10000000  0.00000000  0.50000000  1.000000e-03
  0.10000000  0.00000000  0.60000000  1.000000e-03
  0.10000000  0.00000000  0.70000000  1.000000e-03
  0.10000000  0.00000000  0.80000000  1.000000e-03
  0.10000000  0.00000000  0.90000000  1.000000e-03
  0.10000000  0.10000000  0.00000000  1.000000e-03
  0.10000000  0.10000000  0.10000000  1.000000e-03
  0.10000000  0.10000000  0.20000000  1.000000e-03
  0.10000000  0.10000000  0.30000000  1.000000e-03
  0.10000000  0.10000000  0.40000000  1.000000e-03
  0.10000000  0.10000000  0.50000000  1.000000e-03
  0.10000000  0.10000000  0.60000000  1.000000e-03
  0.10000000  0.10000000  0.70000000  1.000000e-03
  0.10000000  0.10000000  0.80000000  1.000000e-03
  0.10000000  0.10000000  0.90000000  1.000000e-03
  0.10000000  0.20000000  0.00000000  1.000000e-03
  0.10000000  0.20000000  0.10000000  1.000000e-03
  0.10000000  0.20000000  0.20000000  1.000000e-03
  0.10000000  0.20000000  0.30000000  1.000000e-03
  0.10000000  0.20000000  0.40000000  1.000000e-03
  0.10000000  0.20000000  0.50000000  1.000000e-03
  0.10000000  0.20000000  0.60000000  1.000000e-03
  0.10000000  0.20000000  0.70000000  1.000000e-03
  0.10000000  0.20000000  0.80000000  1.000000e-03
  0.10000000  0.20000000  0.90000000  1.000000e-03
  0.10000000  0.30000000  0.00000000  1.000000e-03
  0.10000000  0.30000000  0.10000000  1.000000e-03
  0.10000000  0.30000000  0.20000000  1.000000e-03
  0.10000000  0.30000000  0.30000000  1.000000e-03
  0.10000000  0.30000000  0.40000000  1.000000e-03
  0.10000000  0.30000000  0.50000000  1.000000e-03
  0.10000000  0.30000000  0.60000000  1.000000e-03
  0.10000000  0.30000000  0.70000000  1.000000e-03
  0.10000000  0.30000000  0.80000000  1.000000e-03
  0.10000000  0.30000000  0.90000000  1.000000e-03
  0.10000000  0.40000000  0.00000000  1.000000e-03
  0.10000000  0.40000000  0.10000000  1.000000e-03
  0.10000000  0.40000000  0.20000000  1.000000e-03
  0.10000000  0.40000000  0.30000000  1.000000e-03
  0.10000000  0.40000000  0.40000000  1.000000e-03
  0.10000000  0.40000000  0.50000000  1.000000e-03
  0.10000000  0.40000000  0.60000000  1.000000e-03
  0.10000000  0.40000000  0.70000000  1.000000e-03
  0.10000000  0.40000000  0.80000000  1.000000e-03
  0.10000000  0.40000000  0.90000000  1.000000e-03
  0.10000000  0.50000000  0.00000000  1.000000e-03
  0.10000000  0.50000000  0.10000000  1.000000e-03
  0.10000000  0.50000000  0.20000000  1.000000e-03
  0.10000000  0.50000000  0.30000000  1.000000e-03
  0.10000000  0.50000000  0.40000000  1.000000e-03
  0.10000000  0.50000000  0.50000000  1.000000e-03
  0.10000000  0.50000000  0.60000000  1.000000e-03
  0.10000000  0.50000000  0.70000000  1.000000e-03
  0.10000000  0.50000000  0.80000000  1.000000e-03
  0.10000000  0.50000000  0.90000000  1.000000e-03
  0.10000000  0.60000000  0.00000000  1.000000e-03
  0.10000000  0.60000000  0.10000000  1.000000e-03
  0.10000000  0.60000000  0.20000000  1.000000e-03
  0.10000000  0.60000000  0.30000000  1.000000e-03
  0.10000000  0.60000000  0.40000000  1.000000e-03
  0.10000000  0.60000000  0.50000000  1.000000e-03
  0.10000000  0.60000000  0.60000000  1.000000e-03
  0.10000000  0.60000000  0.70000000  1.000000e-03
  0.10000000  0.60000000  0.80000000  1.000000e-03
  0.10000000  0.60000000  0.90000000  1.000000e-03
  0.10000000  0.70000000  0.00000000  1.000000e-03
  0.10000000  0.70000000  0.10000000  1.000000e-03
  0.10000000  0.70000000  0.20000000  1.000000e-03
  0.10000000  0.70000000  0.30000000  1.000000e-03
  0.10000000  0.70000000  0.40000000  1.000000e-03
  0.10000000  0.70000000  0.50000000  1.000000e-03
  0.10000000  0.70000000  0.60000000  1.000000e-03
  0.10000000  0.70000000  0.70000000  1.000000e-03
  0.10000000  0.70000000  0.80000000  1.000000e-03
  0.10000000  0.70000000  0.90000000  1.000000e-03
  0.10000000  0.80000000  0.00000000  1.000000e-03
  0.10000000  0.80000000  0.10000000  1.000000e-03
  0.10000000  0.80000000  0.20000000  1.000000e-03
  0.10000000  0.80000000  0.30000000  1.000000e-03
  0.10000000  0.80000000  0.40000000  1.000000e-03
  0.10000000  0.80000000  0.50000000  1.000000e-03
  0.10000000  0.80000000  0.60000000  1.000000e-03
  0.10000000  0.80000000  0.70000000  1.000000e-03
  0.10000000  0.80000000  0.80000000  1.000000e-03
  0.10000000  0.80000000  0.90000000  1.000000e-03
  0.10000000  0.90000000  0.00000000  1.000000e-03
  0.10000000  0.90000000  0.10000000  1.000000e-03
  0.10000000  0.90000000  0.20000000  1.000000e-03
  0.10000000  0.90000000  0.30000000  1.000000e-03
  0.10000000  0.90000000  0.40000000  1.000000e-03
  0.10000000  0.90000000  0.50000000  1.000000e-03
  0.10000000  0.90000000  0.60000000  1.000000e-03
  0.10000000  0.90000000  0.70000000  1.000000e-03
  0.10000000  0.90000000  0.80000000  1.000000e-03
  0.10000000  0.90000000  0.90000000  1.000000e-03
  0.20000000  0.00000000  0.00000000  1.000000e-03
  0.20000000  0.00000000  0.10000000  1.000000e-03
  0.20000000  0.00000000  0.20000000  1.000000e-03
  0.20000000  0.00000000  0.30000000  1.000000e-03
  0.20000000  0.00000000  0.40000000  1.000000e-03
  0.20000000  0.00000000  0.50000000  1.000000e-03
  0.20000000  0.00000000  0.60000000  1.000000e-03
  0.20000000  0.00000000  0.70000000  1.000000e-03
  0.20000000  0.00000000  0.80000000  1.000000e-03
  0.20000000  0.00000000  0.90000000  1.000000e-03
  0.20000000  0.10000000  0.00000000  1.000000e-03
  0.20000000  0.10000000  0.10000000  1.000000e-03
  0.20000000  0.10000000  0.20000000  1.000000e-03
  0.20000000  0.10000000  0.30000000  1.000000e-03
  0.20000000  0.10000000  0.40000000  1.000000e-03
  0.20000000  0.10000000  0.50000000  1.000000e-03
  0.20000000  0.10000000  0.60000000  1.000000e-03
  0.20000000  0.10000000  0.70000000  1.000000e-03
  0.20000000  0.10000000  0.80000000  1.000000e-03
  0.20000000  0.10000000  0.90000000  1.000000e-03
  0.20000000  0.20000000  0.00000000  1.000000e-03
  0.20000000  0.20000000  0.10000000  1.000000e-03
  0.20000000  0.20000000  0.20000000  1.000000e-03
  0.20000000  0.20000000  0.30000000  1.000000e-03
  0.20000000  0.20000000  0.40000000  1.000000e-03
  0.20000000  0.20000000  0.50000000  1.000000e-03
  0.20000000  0.20000000  0.60000000  1.000000e-03
  0.20000000  0.20000000  0.70000000  1.000000e-03
  0.20000000  0.20000000  0.80000000  1.000000e-03
  0.20000000  0.20000000  0.90000000  1.000000e-03
  0.20000000  0.30000000  0.00000000  1.000000e-03
  0.20000000  0.30000000  0.10000000  1.000000e-03
  0.20000000  0.30000000  0.20000000  1.000000e-03
  0.20000000  0.30000000  0.30000000  1.000000e-03
  0.20000000  0.30000000  0.40000000  1.000000e-03
  0.20000000  0.30000000  0.50000000  1.000000e-03
  0.20000000  0.30000000  0.60000000  1.000000e-03
  0.20000000  0.30000000  0.70000000  1.000000e-03
  0.20000000  0.30000000  0.80000000  1.000000e-03
  0.20000000  0.30000000  0.90000000  1.000000e-03
  0.20000000  0.40000000  0.00000000  1.000000e-03
  0.20000000  0.40000000  0.10000000  1.000000e-03
  0.20000000  0.40000000  0.20000000  1.000000e-03
  0.20000000  0.40000000  0.30000000  1.000000e-03
  0.20000000  0.40000000  0.40000000  1.000000e-03
  0.20000000  0.40000000  0.50000000  1.000000e-03
  0.20000000  0.40000000  0.60000000  1.000000e-03
  0.20000000  0.40000000  0.70000000  1.000000e-03
  0.20000000  0.40000000  0.80000000  1.000000e-03
  0.20000000  0.40000000  0.90000000  1.000000e-03
  0.20000000  0.50000000  0.00000000  1.000000e-03
  0.20000000  0.50000000  0.10000000  1.000000e-03
  0.20000000  0.50000000  0.20000000  1.000000e-03
  0.20000000  0.50000000  0.30000000  1.000000e-03
  0.20000000  0.50000000  0.40000000  1.000000e-03
  0.20000000  0.50000000  0.50000000  1.000000e-03
  0.20000000  0.50000000  0.60000000  1.000000e-03
  0.20000000  0.50000000  0.70000000  1.000000e-03
  0.20000000  0.50000000  0.80000000  1.000000e-03
  0.20000000  0.50000000  0.90000000  1.000000e-03
  0.20000000  0.60000000  0.00000000  1.000000e-03
  0.20000000  0.60000000  0.10000000  1.000000e-03
  0.20000000  0.60000000  0.20000000  1.000000e-03
  0.20000000  0.60000000  0.30000000  1.000000e-03
  0.20000000  0.60000000  0.40000000  1.000000e-03
  0.20000000  0.60000000  0.50000000  1.000000e-03
  0.20000000  0.60000000  0.60000000  1.000000e-03
  0.20000000  0.60000000  0.70000000  1.000000e-03
  0.20000000  0.60000000  0.80000000  1.000000e-03
  0.20000000  0.60000000  0.90000000  1.000000e-03
  0.20000000  0.70000000  0.00000000  1.000000e-03
  0.20000000  0.70000000  0.10000000  1.000000e-03
  0.20000000  0.70000000  0.20000000  1.000000e-03
  0.20000000  0.70000000  0.30000000  1.000000e-03
  0.20000000  0.70000000  0.40000000  1.000000e-03
  0.20000000  0.70000000  0.50000000  1.000000e-03
  0.20000000  0.70000000  0.60000000  1.000000e-03
  0.20000000  0.70000000  0.70000000  1.000000e-03
  0.20000000  0.70000000  0.80000000  1.000000e-03
  0.20000000  0.70000000  0.90000000  1.000000e-03
  0.20000000  0.80000000  0.00000000  1.000000e-03
  0.20000000  0.80000000  0.10000000  1.000000e-03
  0.20000000  0.80000000  0.20000000  1.000000e-03
  0.20000000  0.80000000  0.30000000  1.000000e-03
  0.20000000  0.80000000  0.40000000  1.000000e-03
  0.20000000  0.80000000  0.50000000  1.000000e-03
  0.20000000  0.80000000  0.60000000  1.000000e-03
  0.20000000  0.80000000  0.70000000  1.000000e-03
  0.20000000  0.80000000  0.80000000  1.000000e-03
  0.20000000  0.80000000  0.90000000  1.000000e-03
  0.20000000  0.90000000  0.00000000  1.000000e-03
  0.20000000  0.90000000  0.10000000  1.000000e-03
  0.20000000  0.90000000  0.20000000  1.000000e-03
  0.20000000  0.90000000  0.30000000  1.000000e-03
  0.20000000  0.90000000  0.40000000  1.000000e-03
  0.20000000  0.90000000  0.50000000  1.000000e-03
  0.20000000  0.90000000  0.60000000  1.000000e-03
  0.20000000  0.90000000  0.70000000  1.000000e-03
  0.20000000  0.90000000  0.80000000  1.000000e-03
  0.20000000  0.90000000  0.90000000  1.000000e-03
  0.30000000  0.00000000  0.00000000  1.000000e-03
  0.30000000  0.00000000  0.10000000  1.000000e-03
  0.30000000  0.00000000  0.20000000  1.000000e-03
  0.30000000  0.00000000  0.30000000  1.000000e-03
  0.30000000  0.00000000  0.40000000  1.000000e-03
  0.30000000  0.00000000  0.50000000  1.000000e-03
  0.30000000  0.00000000  0.60000000  1.000000e-03
  0.30000000  0.00000000  0.70000000  1.000000e-03
  0.30000000  0.00000000  0.80000000  1.000000e-03
  0.30000000  0.00000000  0.90000000  1.000000e-03
  0.30000000  0.10000000  0.00000000  1.000000e-03
  0.30000000  0.10000000  0.10000000  1.000000e-03
  0.30000000  0.10000000  0.20000000  1.000000e-03
  0.30000000  0.10000000  0.30000000  1.000000e-03
  0.30000000  0.10000000  0.40000000  1.000000e-03
  0.30000000  0.10000000  0.50000000  1.000000e-03
  0.30000000  0.10000000  0.60000000  1.000000e-03
  0.30000000  0.10000000  0.70000000  1.000000e-03
  0.30000000  0.10000000  0.80000000  1.000000e-03
  0.30000000  0.10000000  0.90000000  1.000000e-03
  0.30000000  0.20000000  0.00000000  1.000000e-03
  0.30000000  0.20000000  0.10000000  1.000000e-03
  0.30000000  0.20000000  0.20000000  1.000000e-03
  0.30000000  0.20000000  0.30000000  1.000000e-03
  0.30000000  0.20000000  0.40000000  1.000000e-03
  0.30000000  0.20000000  0.50000000  1.000000e-03
  0.30000000  0.20000000  0.60000000  1.000000e-03
  0.30000000  0.20000000  0.70000000  1.000000e-03
  0.30000000  0.20000000  0.80000000  1.000000e-03
  0.30000000  0.20000000  0.90000000  1.000000e-03
  0.30000000  0.30000000  0.00000000  1.000000e-03
  0.30000000  0.30000000  0.10000000  1.000000e-03
  0.30000000  0.30000000  0.20000000  1.000000e-03
  0.30000000  0.30000000  0.30000000  1.000000e-03
  0.30000000  0.30000000  0.40000000  1.000000e-03
  0.30000000  0.30000000  0.50000000  1.000000e-03
  0.30000000  0.30000000  0.60000000  1.000000e-03
  0.30000000  0.30000000  0.70000000  1.000000e-03
  0.30000000  0.30000000  0.80000000  1.000000e-03
  0.30000000  0.30000000  0.90000000  1.000000e-03
  0.30000000  0.40000000  0.00000000  1.000000e-03
  0.30000000  0.40000000  0.10000000  1.000000e-03
  0.30000000  0.40000000  0.20000000  1.000000e-03
  0.30000000  0.40000000  0.30000000  1.000000e-03
  0.30000000  0.40000000  0.40000000  1.000000e-03
  0.30000000  0.40000000  0.50000000  1.000000e-03
  0.30000000  0.40000000  0.60000000  1.000000e-03
  0.30000000  0.40000000  0.70000000  1.000000e-03
  0.30000000  0.40000000  0.80000000  1.000000e-03
  0.30000000  0.40000000  0.90000000  1.000000e-03
  0.30000000  0.50000000  0.00000000  1.000000e-03
  0.30000000  0.50000000  0.10000000  1.000000e-03
  0.30000000  0.50000000  0.20000000  1.000000e-03
  0.30000000  0.50000000  0.30000000  1.000000e-03
  0.30000000  0.50000000  0.40000000  1.000000e-03
  0.30000000  0.50000000  0.50000000  1.000000e-03
  0.30000000  0.50000000  0.60000000  1.000000e-03
  0.30000000  0.50000000  0.70000000  1.000000e-03
  0.30000000  0.50000000  0.80000000  1.000000e-03
  0.30000000  0.50000000  0.90000000  1.000000e-03
  0.30000000  0.60000000  0.00000000  1.000000e-03
  0.30000000  0.60000000  0.10000000  1.000000e-03
  0.30000000  0.60000000  0.20000000  1.000000e-03
  0.30000000  0.60000000  0.30000000  1.000000e-03
  0.30000000  0.60000000  0.40000000  1.000000e-03
  0.30000000  0.60000000  0.50000000  1.000000e-03
  0.30000000  0.60000000  0.60000000  1.000000e-03
  0.30000000  0.60000000  0.70000000  1.000000e-03
  0.30000000  0.60000000  0.80000000  1.000000e-03
  0.30000000  0.60000000  0.90000000  1.000000e-03
  0.30000000  0.70000000  0.00000000  1.000000e-03
  0.30000000  0.70000000  0.10000000  1.000000e-03
  0.30000000  0.70000000  0.20000000  1.000000e-03
  0.30000000  0.70000000  0.30000000  1.000000e-03
  0.30000000  0.70000000  0.40000000  1.000000e-03
  0.30000000  0.70000000  0.50000000  1.000000e-03
  0.30000000  0.70000000  0.60000000  1.000000e-03
  0.30000000  0.70000000  0.70000000  1.000000e-03
  0.30000000  0.70000000  0.80000000  1.000000e-03
  0.30000000  0.70000000  0.90000000  1.000000e-03
  0.30000000  0.80000000  0.00000000  1.000000e-03
  0.30000000  0.80000000  0.10000000  1.000000e-03
  0.30000000  0.80000000  0.20000000  1.000000e-03
  0.30000000  0.80000000  0.30000000  1.000000e-03
  0.30000000  0.80000000  0.40000000  1.000000e-03
  0.30000000  0.80000000  0.50000000  1.000000e-03
  0.30000000  0.80000000  0.60000000  1.000000e-03
  0.30000000  0.80000000  0.70000000  1.000000e-03
  0.30000000  0.80000000  0.80000000  1.000000e-03
  0.30000000  0.80000000  0.90000000  1.000000e-03
  0.30000000  0.90000000  0.00000000  1.000000e-03
  0.30000000  0.90000000  0.10000000  1.000000e-03
  0.30000000  0.90000000  0.20000000  1.000000e-03
  0.30000000  0.90000000  0.30000000  1.000000e-03
  0.30000000  0.90000000  0.40000000  1.000000e-03
  0.30000000  0.90000000  0.50000000  1.000000e-03
  0.30000000  0.90000000  0.60000000  1.000000e-03
  0.30000000  0.90000000  0.70000000  1.000000e-03
  0.30000000  0.90000000  0.80000000  1.000000e-03
  0.30000000  0.90000000  0.90000000  1.000000e-03
  0.40000000  0.00000000  0.00000000  1.000000e-03
  0.40000000  0.00000000  0.10000000  1.000000e-03
  0.40000000  0.00000000  0.20000000  1.000000e-03
  0.40000000  0.00000000  0.30000000  1.000000e-03
  0.40000000  0.00000000  0.40000000  1.000000e-03
  0.40000000  0.00000000  0.50000000  1.000000e-03
  0.40000000  0.00000000  0.60000000  1.000000e-03
  0.40000000  0.00000000  0.70000000  1.000000e-03
  0.40000000  0.00000000  0.80000000  1.000000e-03
  0.40000000  0.00000000  0.90000000  1.000000e-03
  0.40000000  0.10000000  0.00000000  1.000000e-03
  0.40000000  0.10000000  0.10000000  1.000000e-03
  0.40000000  0.10000000  0.20000000  1.000000e-03
  0.40000000  0.10000000  0.30000000  1.000000e-03
  0.40000000  0.10000000  0.40000000  1.000000e-03
  0.40000000  0.10000000  0.50000000  1.000000e-03
  0.40000000  0.10000000  0.60000000  1.000000e-03
  0.40000000  0.10000000  0.70000000  1.000000e-03
  0.40000000  0.10000000  0.80000000  1.000000e-03
  0.40000000  0.10000000  0.90000000  1.000000e-03
  0.40000000  0.20000000  0.00000000  1.000000e-03
  0.40000000  0.20000000  0.10000000  1.000000e-03
  0.40000000  0.20000000  0.20000000  1.000000e-03
  0.40000000  0.20000000  0.30000000  1.000000e-03
  0.40000000  0.20000000  0.40000000  1.000000e-03
  0.40000000  0.20000000  0.50000000  1.000000e-03
  0.40000000  0.20000000  0.60000000  1.000000e-03
  0.40000000  0.20000000  0.70000000  1.000000e-03
  0.40000000  0.20000000  0.80000000  1.000000e-03
  0.40000000  0.20000000  0.90000000  1.000000e-03
  0.40000000  0.30000000  0.00000000  1.000000e-03
  0.40000000  0.30000000  0.10000000  1.000000e-03
  0.40000000  0.30000000  0.20000000  1.000000e-03
  0.40000000  0.30000000  0.30000000  1.000000e-03
  0.40000000  0.30000000  0.40000000  1.000000e-03
  0.40000000  0.30000000  0.50000000  1.000000e-03
  0.40000000  0.30000000  0.60000000  1.000000e-03
  0.40000000  0.30000000  0.70000000  1.000000e-03
  0.40000000  0.30000000  0.80000000  1.000000e-03
  0.40000000  0.30000000  0.90000000  1.000000e-03
  0.40000000  0.40000000  0.00000000  1.000000e-03
  0.40000000  0.40000000  0.10000000  1.000000e-03
  0.40000000  0.40000000  0.20000000  1.000000e-03
  0.40000000  0.40000000  0.30000000  1.000000e-03
  0.40000000  0.40000000  0.40000000  1.000000e-03
  0.40000000  0.40000000  0.50000000  1.000000e-03
  0.40000000  0.40000000  0.60000000  1.000000e-03
  0.40000000  0.40000000  0.70000000  1.000000e-03
  0.40000000  0.40000000  0.80000000  1.000000e-03
  0.40000000  0.40000000  0.90000000  1.000000e-03
  0.40000000  0.50000000  0.00000000  1.000000e-03
  0.40000000  0.50000000  0.10000000  1.000000e-03
  0.40000000  0.50000000  0.20000000  1.000000e-03
  0.40000000  0.50000000  0.30000000  1.000000e-03
  0.40000000  0.50000000  0.40000000  1.000000e-03
  0.40000000  0.50000000  0.50000000  1.000000e-03
  0.40000000  0.50000000  0.60000000  1.000000e-03
  0.40000000  0.50000000  0.70000000  1.000000e-03
  0.40000000  0.50000000  0.80000000  1.000000e-03
  0.40000000  0.50000000  0.90000000  1.000000e-03
  0.40000000  0.60000000  0.00000000  1.000000e-03
  0.40000000  0.60000000  0.10000000  1.000000e-03
  0.40000000  0.60000000  0.20000000  1.000000e-03
  0.40000000  0.60000000  0.30000000  1.000000e-03
  0.40000000  0.60000000  0.40000000  1.000000e-03
  0.40000000  0.60000000  0.50000000  1.000000e-03
  0.40000000  0.60000000  0.60000000  1.000000e-03
  0.40000000  0.60000000  0.70000000  1.000000e-03
  0.40000000  0.60000000  0.80000000  1.000000e-03
  0.40000000  0.60000000  0.90000000  1.000000e-03
  0.40000000  0.70000000  0.00000000  1.000000e-03
  0.40000000  0.70000000  0.10000000  1.000000e-03
  0.40000000  0.70000000  0.20000000  1.000000e-03
  0.40000000  0.70000000  0.30000000  1.000000e-03
  0.40000000  0.70000000  0.40000000  1.000000e-03
  0.40000000  0.70000000  0.50000000  1.000000e-03
  0.40000000  0.70000000  0.60000000  1.000000e-03
  0.40000000  0.70000000  0.70000000  1.000000e-03
  0.40000000  0.70000000  0.80000000  1.000000e-03
  0.40000000  0.70000000  0.90000000  1.000000e-03
  0.40000000  0.80000000  0.00000000  1.000000e-03
  0.40000000  0.80000000  0.10000000  1.000000e-03
  0.40000000  0.80000000  0.20000000  1.000000e-03
  0.40000000  0.80000000  0.30000000  1.000000e-03
  0.40000000  0.80000000  0.40000000  1.000000e-03
  0.40000000  0.80000000  0.50000000  1.000000e-03
  0.40000000  0.80000000  0.60000000  1.000000e-03
  0.40000000  0.80000000  0.70000000  1.000000e-03
  0.40000000  0.80000000  0.80000000  1.000000e-03
  0.40000000  0.80000000  0.90000000  1.000000e-03
  0.40000000  0.90000000  0.00000000  1.000000e-03
  0.40000000  0.90000000  0.10000000  1.000000e-03
  0.40000000  0.90000000  0.20000000  1.000000e-03
  0.40000000  0.90000000  0.30000000  1.000000e-03
  0.40000000  0.90000000  0.40000000  1.000000e-03
  0.40000000  0.90000000  0.50000000  1.000000e-03
  0.40000000  0.90000000  0.60000000  1.000000e-03
  0.40000000  0.90000000  0.70000000  1.000000e-03
  0.40000000  0.90000000  0.80000000  1.000000e-03
  0.40000000  0.90000000  0.90000000  1.000000e-03
  0.50000000  0.00000000  0.00000000  1.000000e-03
  0.50000000  0.00000000  0.10000000  1.000000e-03
  0.50000000  0.00000000  0.20000000  1.000000e-03
  0.50000000  0.00000000  0.30000000  1.000000e-03
  0.50000000  0.00000000  0.40000000  1.000000e-03
  0.50000000  0.00000000  0.50000000  1.000000e-03
  0.50000000  0.00000000  0.60000000  1.000000e-03
  0.50000000  0.00000000  0.70000000  1.000000e-03
  0.50000000  0.00000000  0.80000000  1.000000e-03
  0.50000000  0.00000000  0.90000000  1.000000e-03
  0.50000000  0.10000000  0.00000000  1.000000e-03
  0.50000000  0.10000000  0.10000000  1.000000e-03
  0.50000000  0.10000000  0.20000000  1.000000e-03
  0.50000000  0.10000000  0.30000000  1.000000e-03
  0.50000000  0.10000000  0.40000000  1.000000e-03
  0.50000000  0.10000000  0.50000000  1.000000e-03
  0.50000000  0.10000000  0.60000000  1.000000e-03
  0.50000000  0.10000000  0.70000000  1.000000e-03
  0.50000000  0.10000000  0.80000000  1.000000e-03
  0.50000000  0.10000000  0.90000000  1.000000e-03
  0.50000000  0.20000000  0.00000000  1.000000e-03
  0.50000000  0.20000000  0.10000000  1.000000e-03
  0.50000000  0.20000000  0.20000000  1.000000e-03
  0.50000000  0.20000000  0.30000000  1.000000e-03
  0.50000000  0.20000000  0.40000000  1.000000e-03
  0.50000000  0.20000000  0.50000000  1.000000e-03
  0.50000000  0.20000000  0.60000000  1.000000e-03
  0.50000000  0.20000000  0.70000000  1.000000e-03
  0.50000000  0.20000000  0.80000000  1.000000e-03
  0.50000000  0.20000000  0.90000000  1.000000e-03
  0.50000000  0.30000000  0.00000000  1.000000e-03
  0.50000000  0.30000000  0.10000000  1.000000e-03
  0.50000000  0.30000000  0.20000000  1.000000e-03
  0.50000000  0.30000000  0.30000000  1.000000e-03
  0.50000000  0.30000000  0.40000000  1.000000e-03
  0.50000000  0.30000000  0.50000000  1.000000e-03
  0.50000000  0.30000000  0.60000000  1.000000e-03
  0.50000000  0.30000000  0.70000000  1.000000e-03
  0.50000000  0.30000000  0.80000000  1.000000e-03
  0.50000000  0.30000000  0.90000000  1.000000e-03
  0.50000000  0.40000000  0.00000000  1.000000e-03
  0.50000000  0.40000000  0.10000000  1.000000e-03
  0.50000000  0.40000000  0.20000000  1.000000e-03
  0.50000000  0.40000000  0.30000000  1.000000e-03
  0.50000000  0.40000000  0.40000000  1.000000e-03
  0.50000000  0.40000000  0.50000000  1.000000e-03
  0.50000000  0.40000000  0.60000000  1.000000e-03
  0.50000000  0.40000000  0.70000000  1.000000e-03
  0.50000000  0.40000000  0.80000000  1.000000e-03
  0.50000000  0.40000000  0.90000000  1.000000e-03
  0.50000000  0.50000000  0.00000000  1.000000e-03
  0.50000000  0.50000000  0.10000000  1.000000e-03
  0.50000000  0.50000000  0.20000000  1.000000e-03
  0.50000000  0.50000000  0.30000000  1.000000e-03
  0.50000000  0.50000000  0.40000000  1.000000e-03
  0.50000000  0.50000000  0.50000000  1.000000e-03
  0.50000000  0.50000000  0.60000000  1.000000e-03
  0.50000000  0.50000000  0.70000000  1.000000e-03
  0.50000000  0.50000000  0.80000000  1.000000e-03
  0.50000000  0.50000000  0.90000000  1.000000e-03
  0.50000000  0.60000000  0.00000000  1.000000e-03
  0.50000000  0.60000000  0.10000000  1.000000e-03
  0.50000000  0.60000000  0.20000000  1.000000e-03
  0.50000000  0.60000000  0.30000000  1.000000e-03
  0.50000000  0.60000000  0.40000000  1.000000e-03
  0.50000000  0.60000000  0.50000000  1.000000e-03
  0.50000000  0.60000000  0.60000000  1.000000e-03
  0.50000000  0.60000000  0.70000000  1.000000e-03
  0.50000000  0.60000000  0.80000000  1.000000e-03
  0.50000000  0.60000000  0.90000000  1.000000e-03
  0.50000000  0.70000000  0.00000000  1.000000e-03
  0.50000000  0.70000000  0.10000000  1.000000e-03
  0.50000000  0.70000000  0.20000000  1.000000e-03