num_bands=12
num_wann=9

guiding_centres = .true.
use_ws_distance = .false.
search_shells=12

Begin Projections
f=  0.274036,   0.274036,  0.0000000000000000000  :px,py,pz:z= 0,0,1:x=0.5,0.866025404,0
f= -0.274036,   0.000000,  0.3333333333333333357  :px,py,pz:z= 0,0,1:x=-1,0,0
f= -0.000000,  -0.274036,  0.6666666666666666643  :px,py,pz:z= 0,0,1:x=0.5,-0.866025404,0
end projections

!! !! To plot the bands
bands_plot = true
bands_num_points = 50

! Disentanglement and wannierisation are not
! needed for closest Wannier method
dis_num_iter      = 0
num_iter          = 0

!===========  additional input for closest Wannier method
use_cwf_method = .true.
cwf_mu_max     = 10
cwf_mu_min     = -0.5
cwf_sigma_max  = 0.5
cwf_sigma_min  = 0.0
cwf_delta      = 1e-12
!===========

begin kpoint_path
A 0.0  0.0  0.5  G 0.0  0.0  0.0   
G 0.0  0.0  0.0  H 0.33333 0.33333 0.5 
H 0.33333 0.33333 0.5  A 0.0  0.0  0.5   
A 0.0  0.0  0.5  L 0.5  0.0  0.5  
L 0.5  0.0  0.5   H 0.33333 0.33333 0.5  
H 0.33333 0.33333 0.5  K 0.33333 0.33333 0.0  
K 0.33333 0.33333 0.0 G 0.0  0.0  0.0  
G 0.0  0.0  0.0   M 0.5  0.0  0.0   
M 0.5  0.0  0.0   K 0.33333 0.33333 0.0  
end kpoint_path

begin unit_cell_cart
     4.4570000     0.0000000     0.0000000
    -2.2285000     3.8598752     0.0000000
     0.0000000     0.0000000     5.9581176
end unit_cell_cart

begin atoms_frac
Te   0.274036   0.274036  0.00000000000000000000000000  
Te  -0.274036   0.000000  0.33333333333333333333333357  
Te  -0.000000  -0.274036  0.66666666666666666666666643  
end atoms_frac

mp_grid =     2 2 2

begin kpoints
  0.00000000  0.00000000  0.00000000  1.250000e-01 
  0.00000000  0.00000000  0.50000000  1.250000e-01 
  0.00000000  0.50000000  0.00000000  1.250000e-01 
  0.00000000  0.50000000  0.50000000  1.250000e-01 
  0.50000000  0.00000000  0.00000000  1.250000e-01 
  0.50000000  0.00000000  0.50000000  1.250000e-01 
  0.50000000  0.50000000  0.00000000  1.250000e-01 
  0.50000000  0.50000000  0.50000000  1.250000e-01 
 end kpoints
